c clasp version 2.1.1
c Reading from p14.cnf
c Solving...
s SATISFIABLE

c Models        : 1+    
c Time          : 0.939s (Solving: 0.16s 1st Model: 0.16s Unsat: 0.00s)
c CPU Time      : 0.930s
c Choices       : 9322
c Conflicts     : 607
c Restarts      : 1      (Average: 607.00 Last: 416)

c Variables     : 215510 (Eliminated: 67857 Frozen:    0)
c Constraints   : 242195 (Binary: 64.9% Ternary: 33.5% Other:  1.6%)
c Lemmas        : 607    (Binary:  0.3% Ternary:  3.6% Other: 96.0%)
c   Conflict    : 607    (Average Length: 51.7) 
c   Loop        : 0      (Average Length: 0.0) 
c   Other       : 0      (Average Length: 0.0)
c   Deleted     : 0     
